PARAMETER_FILE = even/even_uncomplete_graph_new/de/par/random116.par
PROBLEM_FILE = even/even_uncomplete_graph_new/de/mat/random116.tsp
Successes/Runs = 0/10
Cost.min = 830, Cost.avg = 830.00, Cost.max = 830
Gap.min = 0.0000%, Gap.avg = 0.0000%, Gap.max = 0.0000%
Trials.min = 1000, Trials.avg = 1000.0, Trials.max = 1000
Time.min = 0.12 sec., Time.avg = 0.15 sec., Time.max = 0.18 sec.
Time.total = 1.53 sec.
请按任意键继续. . . 
